p edge 64 210
e 1 16
e 1 21
e 1 24
e 1 31
e 1 33
e 1 37
e 1 38
e 1 41
e 2 16
e 2 17
e 2 21
e 2 22
e 2 34
e 2 38
e 2 39
e 2 42
e 3 11
e 3 15
e 3 17
e 3 22
e 3 35
e 3 39
e 3 40
e 3 43
e 4 16
e 4 18
e 4 24
e 4 26
e 4 41
e 4 45
e 4 46
e 4 49
e 5 16
e 5 17
e 5 18
e 5 19
e 5 42
e 5 46
e 5 47
e 5 50
e 6 11
e 6 12
e 6 17
e 6 19
e 6 43
e 6 47
e 6 48
e 6 51
e 7 13
e 7 18
e 7 20
e 7 26
e 7 49
e 7 53
e 7 54
e 7 57
e 8 13
e 8 14
e 8 18
e 8 19
e 8 50
e 8 54
e 8 55
e 8 58
e 9 10
e 9 12
e 9 14
e 9 19
e 9 51
e 9 55
e 9 56
e 9 59
e 10 27
e 10 30
e 10 32
e 10 56
e 10 59
e 10 60
e 10 64
e 11 23
e 11 25
e 11 40
e 11 43
e 11 44
e 11 48
e 12 25
e 12 27
e 12 48
e 12 51
e 12 52
e 12 56
e 13 28
e 13 29
e 13 54
e 13 57
e 13 58
e 13 62
e 14 29
e 14 30
e 14 55
e 14 58
e 14 59
e 14 63
e 15 23
e 15 35
e 15 36
e 15 40
e 16 38
e 16 41
e 16 42
e 16 46
e 17 39
e 17 42
e 17 43
e 17 47
e 18 46
e 18 49
e 18 50
e 18 54
e 19 47
e 19 50
e 19 51
e 19 55
e 20 28
e 20 53
e 20 57
e 20 61
e 21 33
e 21 34
e 21 38
e 22 34
e 22 35
e 22 39
e 23 36
e 23 40
e 23 44
e 24 37
e 24 41
e 24 45
e 25 44
e 25 48
e 25 52
e 26 45
e 26 49
e 26 53
e 27 52
e 27 56
e 27 60
e 28 57
e 28 61
e 28 62
e 29 58
e 29 62
e 29 63
e 30 59
e 30 63
e 30 64
e 31 33
e 31 37
e 32 60
e 32 64
e 33 37
e 33 38
e 34 38
e 34 39
e 35 39
e 35 40
e 36 40
e 37 41
e 38 41
e 38 42
e 39 42
e 39 43
e 40 43
e 40 44
e 41 45
e 41 46
e 42 46
e 42 47
e 43 47
e 43 48
e 44 48
e 45 49
e 46 49
e 46 50
e 47 50
e 47 51
e 48 51
e 48 52
e 49 53
e 49 54
e 50 54
e 50 55
e 51 55
e 51 56
e 52 56
e 53 57
e 54 57
e 54 58
e 55 58
e 55 59
e 56 59
e 56 60
e 57 61
e 57 62
e 58 62
e 58 63
e 59 63
e 59 64
e 60 64
